4
4
20
1 1.3 1.55 1.75 2.1
46 30 46 29 28 42 11 24 22 25 33 46 42 22 7 23 21 19 42 42 47 48 49 24 25 31 10 28 13 32 30 7 15 6 15 17 17 42 17 33 34 33 31 15 34 45 21 8 12 21 37 10 11 44 44 25 31 9 33 7 47 15 34 11 44 34 11 24 20 39 12 14 20 5 9 12 30 40 21 8 